%chk=ZnMe2-mp2.chk
%mem=12GB
%nprocshared=2
#p opt mp2/def2svp

ZnPc geom mp2/6-31dp

0 1
 Zn                 0.00000000    0.00000000    0.00000000
 C                 -2.02000000    0.00000000    0.00000000
 H                 -2.37666635    0.47360551    0.89072270
 H                 -2.37666635    0.53458551   -0.85551590
 H                 -2.37666686   -1.00819107   -0.03520681
 C                  2.02000000    0.00000000    0.00000000
 H                  2.37666635   -0.53292561    0.85655088
 H                  2.37666635   -0.47533179   -0.88980268
 H                  2.37666686    1.00825744    0.03325180

